50

100 20 307
97 19 296
96 20 289
92 22 353
89 16 340
86 22 360
83 18 290
83 2 284
82 3 343
79 21 336
77 7 240
76 10 247
73 22 327
73 16 295
70 8 227
69 10 291
69 4 290
61 16 304
60 13 303
60 3 310
60 15 230
58 4 236
56 2 341
56 8 354
53 1 311
51 12 341
49 10 220
48 11 336
48 10 307
48 15 277
47 15 343
46 14 335
42 4 341
41 3 278
36 10 286
35 6 228
34 5 137
32 9 341
32 4 357
32 7 244
31 8 164
22 5 174
17 4 226
12 4 310
12 3 110
6 1 24
6 1 184
5 1 278
3 1 292
2 1 227
